c WARNING: for repeatability, setting FPU to use double precision
d VARIABLES            66930        
d CONSTRAINTS          236372       
c ============================[ Problem Statistics ]=============================
c |                                                                             |
c |  Number of variables:         66930                                         |
c |  Number of clauses:          236372                                         |
c |  Parse time:                   0.04 s                                       |
c |                                                                             |
c ============================[ Search Statistics ]==============================
c | Conflicts |          ORIGINAL         |          LEARNT          | Progress |
c |           |    Vars  Clauses Literals |    Limit  Clauses Lit/Cl |          |
c ===============================================================================
c |       100 |   49272   191526   482539 |    70226      100     12 | 26.383 % |
c |       250 |   49272   191526   482539 |    77248      250     10 | 26.383 % |
c |       475 |   49272   191526   482539 |    84973      475     18 | 26.383 % |
c |       812 |   49272   191526   482539 |    93471      812     16 | 26.383 % |
c |      1318 |   49272   191526   482539 |   102818     1318     25 | 26.383 % |
c |      2077 |   49272   191526   482539 |   113099     2077     32 | 26.383 % |
c |      3216 |   49272   191526   482539 |   124409     3216     35 | 26.383 % |
c |      4924 |   49271   191516   482516 |   136850     4923     40 | 26.384 % |
c |      7486 |   49270   191507   482495 |   150536     7482     45 | 26.386 % |
c |     11330 |   49267   191496   482469 |   165589    11321     55 | 26.390 % |
c |     17096 |   49247   191365   482164 |   182148    17051     52 | 26.420 % |
c ===============================================================================
c restarts              : 86
c conflicts             : 23765          (7900 /sec)
c decisions             : 126214         (0.00 % random) (41957 /sec)
c propagations          : 22609952       (7516137 /sec)
c conflict literals     : 1280001        (30.17 % deleted)
d RESTARTS             86
d FAILURES             23765        
d NODES                126214       
d BACKTRACKS           126214       
d PROPAGATIONS         22609952     
d NOGOODSIZE           53.86 
d MEMORY               35.00 
d TIME                 3.00819 

s UNSATISFIABLE
